Welcome to the CBC MILP Solver 
Version: 2.10.12 
Build Date: Aug 20 2024 

command line - /opt/homebrew/bin/cbc computational_data/real_data/lp/wdbc_trial_011.lp seconds 10.0 solve solu computational_data/real_data/solutions/wdbc_trial_011.sol (default strategy 1)
seconds was changed from 1e+100 to 10
Continuous objective value is 6.5 - 0.00 seconds
Cgl0003I 0 fixed, 0 tightened bounds, 34 strengthened rows, 0 substitutions
Cgl0003I 0 fixed, 0 tightened bounds, 38 strengthened rows, 0 substitutions
Cgl0003I 0 fixed, 0 tightened bounds, 32 strengthened rows, 0 substitutions
Cgl0003I 0 fixed, 0 tightened bounds, 11 strengthened rows, 0 substitutions
Cgl0003I 0 fixed, 0 tightened bounds, 7 strengthened rows, 0 substitutions
Cgl0003I 0 fixed, 0 tightened bounds, 4 strengthened rows, 0 substitutions
Cgl0003I 0 fixed, 0 tightened bounds, 4 strengthened rows, 0 substitutions
Cgl0003I 0 fixed, 0 tightened bounds, 2 strengthened rows, 0 substitutions
Cgl0004I processed model has 63 rows, 31 columns (31 integer (31 of which binary)) and 314 elements
Cutoff increment increased from 1e-05 to 0.9999
Cbc0038I Initial state - 14 integers unsatisfied sum - 5.5
Cbc0038I Pass   1: suminf.    5.50000 (14) obj. 6.5 iterations 6
Cbc0038I Pass   2: suminf.    4.00000 (8) obj. 7 iterations 25
Cbc0038I Pass   3: suminf.    4.00000 (8) obj. 7 iterations 13
Cbc0038I Pass   4: suminf.    4.00000 (8) obj. 7 iterations 13
Cbc0038I Pass   5: suminf.    0.00000 (0) obj. 8 iterations 13
Cbc0038I Solution found of 8
Cbc0038I Before mini branch and bound, 15 integers at bound fixed and 0 continuous
Cbc0038I Full problem 63 rows 31 columns, reduced to 22 rows 12 columns
Cbc0038I Mini branch and bound did not improve solution (0.01 seconds)
Cbc0038I Round again with cutoff of 6.95009
Cbc0038I Reduced cost fixing fixed 6 variables on major pass 2
Cbc0038I Pass   6: suminf.    5.50000 (14) obj. 6.5 iterations 0
Cbc0038I Pass   7: suminf.    4.44919 (13) obj. 6.95009 iterations 18
Cbc0038I Pass   8: suminf.    4.24955 (12) obj. 6.95009 iterations 8
Cbc0038I Pass   9: suminf.    4.24955 (12) obj. 6.95009 iterations 19
Cbc0038I Pass  10: suminf.    4.24955 (12) obj. 6.95009 iterations 6
Cbc0038I Pass  11: suminf.    4.24955 (12) obj. 6.95009 iterations 10
Cbc0038I Pass  12: suminf.    4.24955 (12) obj. 6.95009 iterations 9
Cbc0038I Pass  13: suminf.    4.24955 (16) obj. 6.95009 iterations 5
Cbc0038I Pass  14: suminf.    4.24955 (12) obj. 6.95009 iterations 4
Cbc0038I Pass  15: suminf.    4.24955 (12) obj. 6.95009 iterations 16
Cbc0038I Pass  16: suminf.    4.24955 (12) obj. 6.95009 iterations 9
Cbc0038I Pass  17: suminf.    4.24955 (12) obj. 6.95009 iterations 19
Cbc0038I Pass  18: suminf.    4.24955 (12) obj. 6.95009 iterations 6
Cbc0038I Pass  19: suminf.    4.19964 (12) obj. 6.95009 iterations 14
Cbc0038I Pass  20: suminf.    3.69964 (14) obj. 6.95009 iterations 6
Cbc0038I Pass  21: suminf.    3.69964 (14) obj. 6.95009 iterations 0
Cbc0038I Pass  22: suminf.    4.14973 (15) obj. 6.95009 iterations 20
Cbc0038I Pass  23: suminf.    4.14973 (15) obj. 6.95009 iterations 2
Cbc0038I Pass  24: suminf.    4.59982 (16) obj. 6.95009 iterations 17
Cbc0038I Pass  25: suminf.    4.14973 (15) obj. 6.95009 iterations 6
Cbc0038I Pass  26: suminf.    4.14973 (15) obj. 6.95009 iterations 3
Cbc0038I Pass  27: suminf.    4.76649 (14) obj. 6.95009 iterations 15
Cbc0038I Pass  28: suminf.    4.48306 (13) obj. 6.95009 iterations 7
Cbc0038I Pass  29: suminf.    4.48306 (13) obj. 6.95009 iterations 2
Cbc0038I Pass  30: suminf.    4.48306 (13) obj. 6.95009 iterations 15
Cbc0038I Pass  31: suminf.    4.48306 (13) obj. 6.95009 iterations 0
Cbc0038I Pass  32: suminf.    4.59982 (16) obj. 6.95009 iterations 13
Cbc0038I Pass  33: suminf.    4.14973 (15) obj. 6.95009 iterations 5
Cbc0038I Pass  34: suminf.    4.14973 (15) obj. 6.95009 iterations 2
Cbc0038I Pass  35: suminf.    4.59982 (16) obj. 6.95009 iterations 15
Cbc0038I No solution found this major pass
Cbc0038I Before mini branch and bound, 9 integers at bound fixed and 0 continuous
Cbc0038I Full problem 63 rows 31 columns, reduced to 54 rows 22 columns
Cbc0038I Mini branch and bound did not improve solution (0.03 seconds)
Cbc0038I After 0.03 seconds - Feasibility pump exiting with objective of 8 - took 0.03 seconds
Cbc0012I Integer solution of 8 found by feasibility pump after 0 iterations and 0 nodes (0.03 seconds)
Cbc0038I Full problem 63 rows 31 columns, reduced to 19 rows 10 columns
Cbc0031I 3 added rows had average density of 9.6666667
Cbc0013I At root node, 12 cuts changed objective from 6.5 to 7.1666667 in 2 passes
Cbc0014I Cut generator 0 (Probing) - 0 row cuts average 0.0 elements, 0 column cuts (0 active)  in 0.000 seconds - new frequency is -100
Cbc0014I Cut generator 1 (Gomory) - 10 row cuts average 14.0 elements, 0 column cuts (0 active)  in 0.000 seconds - new frequency is 1
Cbc0014I Cut generator 2 (Knapsack) - 0 row cuts average 0.0 elements, 0 column cuts (0 active)  in 0.000 seconds - new frequency is -100
Cbc0014I Cut generator 3 (Clique) - 0 row cuts average 0.0 elements, 0 column cuts (0 active)  in 0.000 seconds - new frequency is -100
Cbc0014I Cut generator 4 (MixedIntegerRounding2) - 0 row cuts average 0.0 elements, 0 column cuts (0 active)  in 0.000 seconds - new frequency is -100
Cbc0014I Cut generator 5 (FlowCover) - 0 row cuts average 0.0 elements, 0 column cuts (0 active)  in 0.000 seconds - new frequency is -100
Cbc0014I Cut generator 6 (TwoMirCuts) - 10 row cuts average 14.0 elements, 0 column cuts (0 active)  in 0.000 seconds - new frequency is -100
Cbc0001I Search completed - best objective 8, took 8 iterations and 0 nodes (0.04 seconds)
Cbc0035I Maximum depth 0, 6 variables fixed on reduced cost
Cuts at root node changed objective from 6.5 to 7.16667
Probing was tried 2 times and created 0 cuts of which 0 were active after adding rounds of cuts (0.000 seconds)
Gomory was tried 2 times and created 10 cuts of which 0 were active after adding rounds of cuts (0.000 seconds)
Knapsack was tried 2 times and created 0 cuts of which 0 were active after adding rounds of cuts (0.000 seconds)
Clique was tried 2 times and created 0 cuts of which 0 were active after adding rounds of cuts (0.000 seconds)
MixedIntegerRounding2 was tried 2 times and created 0 cuts of which 0 were active after adding rounds of cuts (0.000 seconds)
FlowCover was tried 2 times and created 0 cuts of which 0 were active after adding rounds of cuts (0.000 seconds)
TwoMirCuts was tried 2 times and created 10 cuts of which 0 were active after adding rounds of cuts (0.000 seconds)
ZeroHalf was tried 1 times and created 0 cuts of which 0 were active after adding rounds of cuts (0.000 seconds)

Result - Optimal solution found

Objective value:                8.00000000
Enumerated nodes:               0
Total iterations:               8
Time (CPU seconds):             0.04
Time (Wallclock seconds):       0.04

Total time (CPU seconds):       0.04   (Wallclock seconds):       0.04

